certificates/rado_a13_c92_N25.cnf
c Rad2 upper bound instance: x1 + 13*x2 - x3 = 92, interval [1,25]
p cnf 25 96
1 8 13 0
-1 -8 -13 0
1 2 7 0
-1 -2 -7 0
2 8 14 0
-2 -8 -14 0
2 3 7 0
-2 -3 -7 0
3 8 15 0
-3 -8 -15 0
3 4 7 0
-3 -4 -7 0
4 8 16 0
-4 -8 -16 0
4 5 7 0
-4 -5 -7 0
5 8 17 0
-5 -8 -17 0
5 6 7 0
-5 -6 -7 0
6 8 18 0
-6 -8 -18 0
6 7 0
-6 -7 0
7 8 19 0
-7 -8 -19 0
7 8 0
-7 -8 0
8 20 0
-8 -20 0
7 8 9 0
-7 -8 -9 0
8 9 21 0
-8 -9 -21 0
7 9 10 0
-7 -9 -10 0
8 10 22 0
-8 -10 -22 0
7 10 11 0
-7 -10 -11 0
8 11 23 0
-8 -11 -23 0
7 11 12 0
-7 -11 -12 0
8 12 24 0
-8 -12 -24 0
7 12 13 0
-7 -12 -13 0
8 13 25 0
-8 -13 -25 0
7 13 14 0
-7 -13 -14 0
1 6 15 0
-1 -6 -15 0
7 14 15 0
-7 -14 -15 0
2 6 16 0
-2 -6 -16 0
7 15 16 0
-7 -15 -16 0
3 6 17 0
-3 -6 -17 0
7 16 17 0
-7 -16 -17 0
4 6 18 0
-4 -6 -18 0
7 17 18 0
-7 -17 -18 0
5 6 19 0
-5 -6 -19 0
7 18 19 0
-7 -18 -19 0
6 20 0
-6 -20 0
7 19 20 0
-7 -19 -20 0
6 7 21 0
-6 -7 -21 0
7 20 21 0
-7 -20 -21 0
6 8 22 0
-6 -8 -22 0
7 21 22 0
-7 -21 -22 0
6 9 23 0
-6 -9 -23 0
7 22 23 0
-7 -22 -23 0
6 10 24 0
-6 -10 -24 0
7 23 24 0
-7 -23 -24 0
6 11 25 0
-6 -11 -25 0
7 24 25 0
-7 -24 -25 0
