certificates/rado_a13_c92_N25.drat
-24 -25 0
d -24 -7 -25 0
12 -25 0
-8 -25 0
-25 0
8 0
-7 0
-20 0
6 0
24 0
21 0
19 0
-10 0
-18 0
-22 0
-12 0
-9 0
-5 0
11 0
0
